benchmarks_vrp/CMT4/min_c/CMT4_7.vrp
NAME: CMT4_7
TYPE: CVRP
COMMENT: 1028.42 - Cluster Nr.7
DIMENSION: 9
CAPACITY: 200
EDGE_WEIGHT_TYPE: EUC_2D
NODE_COORD_TYPE: TWOD_COORDS
NODE_COORD_SECTION: 
8 5 6
6 35 35
7 30 5
1 23 3
3 5 5
5 13 13
9 21 10
4 15 10
2 24 12
DEPOT_SECTION: 
6
-1
DEMAND_SECTION: 
2 5
6 0
8 7
9 13
3 16
5 9
1 7
7 8
4 20
EOF
