benchmarks_vrp/CMT4/min_c/CMT4_7.tour
NAME: CMT4_7 solution
TYPE: TOUR
TOUR_SECTION:
6 2 9 4 5 3 8 1 7 -1
-1
EOF